c colouring generated by benchmark framework
p edge 1283 76751
v 1 12
v 2 8
v 3 22
v 4 15
v 5 15
v 6 25
v 7 25
v 8 17
v 9 21
v 10 10
v 11 4
v 12 0
v 13 16
v 14 16
v 15 18
v 16 0
v 17 21
v 18 13
v 19 23
v 20 12
v 21 15
v 22 24
v 23 3
v 24 7
v 25 25
v 26 1
v 27 25
v 28 13
v 29 22
v 30 18
v 31 13
v 32 6
v 33 21
v 34 20
v 35 17
v 36 5
v 37 0
v 38 2
v 39 25
v 40 5
v 41 0
v 42 17
v 43 14
v 44 10
v 45 2
v 46 17
v 47 20
v 48 20
v 49 10
v 50 9
v 51 12
v 52 6
v 53 10
v 54 23
v 55 3
v 56 22
v 57 17
v 58 6
v 59 1
v 60 2
v 61 9
v 62 23
v 63 14
v 64 19
v 65 8
v 66 15
v 67 25
v 68 18
v 69 24
v 70 10
v 71 14
v 72 11
v 73 23
v 74 3
v 75 1
v 76 17
v 77 23
v 78 15
v 79 4
v 80 15
v 81 4
v 82 19
v 83 18
v 84 25
v 85 6
v 86 15
v 87 11
v 88 6
v 89 18
v 90 13
v 91 23
v 92 15
v 93 12
v 94 4
v 95 12
v 96 8
v 97 21
v 98 0
v 99 22
v 100 13
v 101 21
v 102 20
v 103 17
v 104 17
v 105 15
v 106 6
v 107 23
v 108 25
v 109 0
v 110 7
v 111 10
v 112 12
v 113 5
v 114 22
v 115 24
v 116 11
v 117 20
v 118 12
v 119 1
v 120 18
v 121 13
v 122 1
v 123 15
v 124 13
v 125 10
v 126 3
v 127 23
v 128 15
v 129 22
v 130 2
v 131 12
v 132 22
v 133 20
v 134 2
v 135 9
v 136 25
v 137 24
v 138 24
v 139 11
v 140 22
v 141 5
v 142 5
v 143 12
v 144 1
v 145 10
v 146 12
v 147 23
v 148 2
v 149 17
v 150 25
v 151 20
v 152 24
v 153 0
v 154 21
v 155 14
v 156 3
v 157 13
v 158 7
v 159 11
v 160 21
v 161 20
v 162 24
v 163 23
v 164 13
v 165 11
v 166 11
v 167 17
v 168 20
v 169 1
v 170 14
v 171 15
v 172 22
v 173 24
v 174 12
v 175 2
v 176 17
v 177 2
v 178 10
v 179 22
v 180 12
v 181 16
v 182 4
v 183 8
v 184 13
v 185 18
v 186 7
v 187 22
v 188 16
v 189 4
v 190 7
v 191 0
v 192 16
v 193 11
v 194 18
v 195 4
v 196 23
v 197 5
v 198 20
v 199 16
v 200 2
v 201 21
v 202 21
v 203 8
v 204 18
v 205 11
v 206 24
v 207 21
v 208 20
v 209 22
v 210 14
v 211 11
v 212 7
v 213 7
v 214 22
v 215 16
v 216 12
v 217 14
v 218 4
v 219 21
v 220 5
v 221 1
v 222 23
v 223 20
v 224 12
v 225 24
v 226 24
v 227 25
v 228 12
v 229 10
v 230 9
v 231 13
v 232 20
v 233 2
v 234 2
v 235 4
v 236 15
v 237 5
v 238 24
v 239 12
v 240 24
v 241 15
v 242 8
v 243 10
v 244 21
v 245 4
v 246 20
v 247 5
v 248 10
v 249 24
v 250 19
v 251 15
v 252 3
v 253 7
v 254 24
v 255 16
v 256 0
v 257 22
v 258 7
v 259 2
v 260 20
v 261 25
v 262 13
v 263 19
v 264 1
v 265 23
v 266 21
v 267 5
v 268 22
v 269 16
v 270 5
v 271 10
v 272 9
v 273 9
v 274 0
v 275 6
v 276 4
v 277 0
v 278 5
v 279 1
v 280 9
v 281 19
v 282 2
v 283 14
v 284 6
v 285 15
v 286 8
v 287 18
v 288 2
v 289 3
v 290 23
v 291 11
v 292 19
v 293 7
v 294 19
v 295 18
v 296 15
v 297 21
v 298 21
v 299 19
v 300 11
v 301 25
v 302 5
v 303 15
v 304 15
v 305 6
v 306 18
v 307 22
v 308 12
v 309 12
v 310 6
v 311 16
v 312 25
v 313 4
v 314 10
v 315 25
v 316 2
v 317 12
v 318 9
v 319 25
v 320 6
v 321 11
v 322 10
v 323 21
v 324 1
v 325 14
v 326 7
v 327 1
v 328 21
v 329 23
v 330 11
v 331 23
v 332 4
v 333 24
v 334 20
v 335 5
v 336 17
v 337 9
v 338 6
v 339 1
v 340 6
v 341 22
v 342 13
v 343 2
v 344 10
v 345 16
v 346 3
v 347 5
v 348 11
v 349 22
v 350 4
v 351 8
v 352 11
v 353 19
v 354 8
v 355 16
v 356 20
v 357 12
v 358 9
v 359 18
v 360 11
v 361 17
v 362 1
v 363 7
v 364 7
v 365 2
v 366 9
v 367 15
v 368 3
v 369 0
v 370 9
v 371 7
v 372 19
v 373 15
v 374 19
v 375 6
v 376 16
v 377 20
v 378 7
v 379 24
v 380 19
v 381 2
v 382 18
v 383 7
v 384 24
v 385 10
v 386 10
v 387 23
v 388 1
v 389 20
v 390 12
v 391 9
v 392 12
v 393 1
v 394 25
v 395 14
v 396 4
v 397 17
v 398 6
v 399 10
v 400 5
v 401 16
v 402 14
v 403 17
v 404 11
v 405 8
v 406 10
v 407 11
v 408 7
v 409 10
v 410 1
v 411 21
v 412 10
v 413 13
v 414 8
v 415 4
v 416 7
v 417 2
v 418 21
v 419 5
v 420 21
v 421 13
v 422 9
v 423 21
v 424 8
v 425 6
v 426 15
v 427 17
v 428 25
v 429 3
v 430 16
v 431 10
v 432 14
v 433 6
v 434 4
v 435 17
v 436 9
v 437 7
v 438 16
v 439 0
v 440 8
v 441 14
v 442 22
v 443 2
v 444 6
v 445 0
v 446 19
v 447 15
v 448 19
v 449 14
v 450 22
v 451 2
v 452 1
v 453 15
v 454 11
v 455 18
v 456 16
v 457 18
v 458 14
v 459 24
v 460 19
v 461 14
v 462 9
v 463 2
v 464 7
v 465 4
v 466 9
v 467 13
v 468 5
v 469 21
v 470 2
v 471 21
v 472 17
v 473 23
v 474 17
v 475 21
v 476 4
v 477 6
v 478 23
v 479 11
v 480 0
v 481 16
v 482 18
v 483 25
v 484 8
v 485 6
v 486 23
v 487 4
v 488 17
v 489 3
v 490 14
v 491 14
v 492 4
v 493 14
v 494 6
v 495 25
v 496 24
v 497 12
v 498 16
v 499 25
v 500 19
v 501 22
v 502 18
v 503 16
v 504 24
v 505 13
v 506 11
v 507 8
v 508 11
v 509 15
v 510 19
v 511 20
v 512 5
v 513 0
v 514 21
v 515 22
v 516 4
v 517 16
v 518 18
v 519 7
v 520 25
v 521 23
v 522 0
v 523 14
v 524 19
v 525 10
v 526 4
v 527 6
v 528 0
v 529 9
v 530 24
v 531 12
v 532 15
v 533 17
v 534 25
v 535 6
v 536 5
v 537 8
v 538 16
v 539 12
v 540 11
v 541 9
v 542 2
v 543 13
v 544 16
v 545 25
v 546 24
v 547 22
v 548 3
v 549 14
v 550 12
v 551 19
v 552 25
v 553 5
v 554 20
v 555 3
v 556 8
v 557 23
v 558 19
v 559 4
v 560 18
v 561 10
v 562 6
v 563 5
v 564 15
v 565 23
v 566 4
v 567 19
v 568 8
v 569 5
v 570 15
v 571 16
v 572 23
v 573 5
v 574 2
v 575 24
v 576 8
v 577 5
v 578 13
v 579 13
v 580 20
v 581 10
v 582 3
v 583 4
v 584 1
v 585 13
v 586 10
v 587 20
v 588 9
v 589 8
v 590 11
v 591 19
v 592 24
v 593 18
v 594 24
v 595 5
v 596 13
v 597 19
v 598 21
v 599 16
v 600 25
v 601 19
v 602 4
v 603 5
v 604 12
v 605 8
v 606 3
v 607 15
v 608 18
v 609 2
v 610 24
v 611 22
v 612 7
v 613 21
v 614 17
v 615 17
v 616 4
v 617 25
v 618 8
v 619 0
v 620 22
v 621 2
v 622 15
v 623 0
v 624 7
v 625 14
v 626 4
v 627 24
v 628 10
v 629 20
v 630 15
v 631 1
v 632 18
v 633 23
v 634 13
v 635 12
v 636 8
v 637 13
v 638 24
v 639 7
v 640 25
v 641 22
v 642 24
v 643 10
v 644 9
v 645 19
v 646 1
v 647 19
v 648 20
v 649 12
v 650 13
v 651 12
v 652 1
v 653 14
v 654 10
v 655 21
v 656 14
v 657 3
v 658 9
v 659 4
v 660 2
v 661 22
v 662 22
v 663 25
v 664 3
v 665 5
v 666 1
v 667 23
v 668 22
v 669 24
v 670 5
v 671 12
v 672 16
v 673 22
v 674 24
v 675 24
v 676 15
v 677 16
v 678 21
v 679 13
v 680 23
v 681 16
v 682 20
v 683 1
v 684 19
v 685 17
v 686 18
v 687 23
v 688 15
v 689 23
v 690 24
v 691 8
v 692 5
v 693 24
v 694 11
v 695 0
v 696 20
v 697 6
v 698 11
v 699 20
v 700 8
v 701 17
v 702 13
v 703 8
v 704 8
v 705 25
v 706 11
v 707 15
v 708 8
v 709 22
v 710 3
v 711 7
v 712 0
v 713 21
v 714 21
v 715 2
v 716 16
v 717 25
v 718 2
v 719 7
v 720 12
v 721 23
v 722 1
v 723 7
v 724 0
v 725 24
v 726 18
v 727 8
v 728 6
v 729 4
v 730 12
v 731 19
v 732 11
v 733 16
v 734 15
v 735 11
v 736 24
v 737 5
v 738 13
v 739 23
v 740 2
v 741 2
v 742 0
v 743 8
v 744 19
v 745 25
v 746 22
v 747 16
v 748 16
v 749 17
v 750 6
v 751 21
v 752 11
v 753 7
v 754 1
v 755 18
v 756 7
v 757 13
v 758 16
v 759 11
v 760 4
v 761 17
v 762 9
v 763 2
v 764 25
v 765 23
v 766 16
v 767 18
v 768 20
v 769 20
v 770 23
v 771 1
v 772 19
v 773 25
v 774 18
v 775 5
v 776 23
v 777 6
v 778 20
v 779 2
v 780 1
v 781 24
v 782 13
v 783 11
v 784 13
v 785 10
v 786 13
v 787 11
v 788 7
v 789 7
v 790 14
v 791 22
v 792 15
v 793 21
v 794 2
v 795 3
v 796 3
v 797 9
v 798 11
v 799 10
v 800 4
v 801 6
v 802 22
v 803 1
v 804 2
v 805 8
v 806 21
v 807 20
v 808 23
v 809 5
v 810 11
v 811 11
v 812 9
v 813 19
v 814 10
v 815 14
v 816 24
v 817 10
v 818 25
v 819 2
v 820 22
v 821 6
v 822 1
v 823 16
v 824 23
v 825 16
v 826 15
v 827 5
v 828 7
v 829 5
v 830 21
v 831 16
v 832 6
v 833 10
v 834 5
v 835 16
v 836 18
v 837 0
v 838 25
v 839 25
v 840 22
v 841 21
v 842 11
v 843 7
v 844 9
v 845 22
v 846 17
v 847 21
v 848 23
v 849 16
v 850 15
v 851 25
v 852 25
v 853 13
v 854 2
v 855 0
v 856 20
v 857 1
v 858 10
v 859 18
v 860 8
v 861 16
v 862 16
v 863 18
v 864 0
v 865 6
v 866 6
v 867 25
v 868 13
v 869 13
v 870 19
v 871 20
v 872 11
v 873 18
v 874 16
v 875 5
v 876 17
v 877 9
v 878 5
v 879 23
v 880 4
v 881 14
v 882 4
v 883 0
v 884 3
v 885 1
v 886 15
v 887 3
v 888 25
v 889 0
v 890 7
v 891 3
v 892 6
v 893 20
v 894 22
v 895 23
v 896 18
v 897 21
v 898 19
v 899 10
v 900 17
v 901 11
v 902 3
v 903 18
v 904 3
v 905 22
v 906 1
v 907 15
v 908 4
v 909 14
v 910 14
v 911 7
v 912 16
v 913 21
v 914 20
v 915 13
v 916 10
v 917 8
v 918 23
v 919 11
v 920 20
v 921 6
v 922 10
v 923 0
v 924 2
v 925 3
v 926 14
v 927 25
v 928 16
v 929 11
v 930 23
v 931 13
v 932 9
v 933 11
v 934 20
v 935 16
v 936 22
v 937 25
v 938 10
v 939 6
v 940 19
v 941 8
v 942 15
v 943 14
v 944 16
v 945 9
v 946 15
v 947 4
v 948 10
v 949 2
v 950 24
v 951 12
v 952 3
v 953 4
v 954 9
v 955 8
v 956 5
v 957 17
v 958 16
v 959 4
v 960 14
v 961 23
v 962 6
v 963 7
v 964 13
v 965 0
v 966 16
v 967 3
v 968 17
v 969 15
v 970 17
v 971 24
v 972 15
v 973 24
v 974 14
v 975 3
v 976 25
v 977 9
v 978 14
v 979 12
v 980 16
v 981 4
v 982 5
v 983 8
v 984 19
v 985 12
v 986 24
v 987 3
v 988 25
v 989 9
v 990 22
v 991 20
v 992 13
v 993 17
v 994 21
v 995 8
v 996 12
v 997 24
v 998 0
v 999 5
v 1000 22
v 1001 8
v 1002 1
v 1003 2
v 1004 18
v 1005 4
v 1006 0
v 1007 4
v 1008 9
v 1009 20
v 1010 21
v 1011 17
v 1012 13
v 1013 25
v 1014 15
v 1015 21
v 1016 13
v 1017 4
v 1018 12
v 1019 6
v 1020 0
v 1021 22
v 1022 8
v 1023 1
v 1024 21
v 1025 12
v 1026 5
v 1027 7
v 1028 19
v 1029 13
v 1030 7
v 1031 16
v 1032 15
v 1033 15
v 1034 25
v 1035 5
v 1036 19
v 1037 24
v 1038 13
v 1039 12
v 1040 11
v 1041 20
v 1042 9
v 1043 8
v 1044 18
v 1045 7
v 1046 1
v 1047 0
v 1048 12
v 1049 19
v 1050 19
v 1051 8
v 1052 2
v 1053 4
v 1054 18
v 1055 24
v 1056 14
v 1057 0
v 1058 1
v 1059 12
v 1060 14
v 1061 20
v 1062 11
v 1063 16
v 1064 6
v 1065 5
v 1066 3
v 1067 10
v 1068 1
v 1069 8
v 1070 10
v 1071 21
v 1072 5
v 1073 4
v 1074 11
v 1075 1
v 1076 16
v 1077 1
v 1078 10
v 1079 19
v 1080 0
v 1081 6
v 1082 25
v 1083 20
v 1084 23
v 1085 0
v 1086 19
v 1087 9
v 1088 22
v 1089 23
v 1090 24
v 1091 14
v 1092 17
v 1093 0
v 1094 7
v 1095 13
v 1096 4
v 1097 0
v 1098 20
v 1099 16
v 1100 9
v 1101 20
v 1102 10
v 1103 6
v 1104 24
v 1105 10
v 1106 3
v 1107 24
v 1108 21
v 1109 14
v 1110 1
v 1111 0
v 1112 21
v 1113 4
v 1114 20
v 1115 3
v 1116 3
v 1117 18
v 1118 18
v 1119 24
v 1120 15
v 1121 11
v 1122 9
v 1123 21
v 1124 23
v 1125 12
v 1126 3
v 1127 24
v 1128 7
v 1129 6
v 1130 3
v 1131 17
v 1132 3
v 1133 0
v 1134 13
v 1135 12
v 1136 18
v 1137 0
v 1138 11
v 1139 2
v 1140 2
v 1141 0
v 1142 2
v 1143 16
v 1144 12
v 1145 15
v 1146 11
v 1147 0
v 1148 4
v 1149 4
v 1150 20
v 1151 21
v 1152 13
v 1153 9
v 1154 7
v 1155 5
v 1156 23
v 1157 3
v 1158 8
v 1159 25
v 1160 21
v 1161 1
v 1162 10
v 1163 9
v 1164 18
v 1165 19
v 1166 3
v 1167 8
v 1168 1
v 1169 2
v 1170 19
v 1171 9
v 1172 17
v 1173 1
v 1174 10
v 1175 20
v 1176 15
v 1177 23
v 1178 8
v 1179 20
v 1180 5
v 1181 1
v 1182 9
v 1183 4
v 1184 17
v 1185 0
v 1186 14
v 1187 3
v 1188 14
v 1189 10
v 1190 16
v 1191 11
v 1192 3
v 1193 10
v 1194 17
v 1195 20
v 1196 9
v 1197 11
v 1198 20
v 1199 10
v 1200 17
v 1201 21
v 1202 4
v 1203 8
v 1204 7
v 1205 17
v 1206 5
v 1207 3
v 1208 11
v 1209 7
v 1210 18
v 1211 7
v 1212 21
v 1213 9
v 1214 9
v 1215 13
v 1216 8
v 1217 14
v 1218 25
v 1219 21
v 1220 17
v 1221 4
v 1222 14
v 1223 24
v 1224 13
v 1225 20
v 1226 9
v 1227 22
v 1228 4
v 1229 12
v 1230 6
v 1231 10
v 1232 7
v 1233 8
v 1234 9
v 1235 16
v 1236 14
v 1237 13
v 1238 14
v 1239 5
v 1240 9
v 1241 8
v 1242 18
v 1243 20
v 1244 8
v 1245 7
v 1246 1
v 1247 16
v 1248 9
v 1249 2
v 1250 21
v 1251 10
v 1252 3
v 1253 9
v 1254 15
v 1255 0
v 1256 20
v 1257 5
v 1258 7
v 1259 4
v 1260 0
v 1261 0
v 1262 18
v 1263 0
v 1264 24
v 1265 16
v 1266 7
v 1267 10
v 1268 22
v 1269 4
v 1270 8
v 1271 0
v 1272 19
v 1273 1
v 1274 7
v 1275 8
v 1276 15
v 1277 18
v 1278 14
v 1279 1
v 1280 3
v 1281 4
v 1282 17
v 1283 12
